c File: flat50_3_0.col
c
c SOURCE: Joseph Culberson (joe@cs.ualberta.ca)
c DESCRIPTION: Quasi-random coloring problem
c              generated with flatness = 0
c                             probability = 0.139
c                             known coloring = 3
c                             random seed = 1900
c              Creation Date:  Tue Jun  9 12:20:41 1998
c Maximum degree = 8 Minimum degree = 1
c p edge 50 115
c cnf created by edge2cnf
p cnf 150 545
-1 -2 0
-1 -3 0
-2 -3 0
1 2 3 0
-4 -5 0
-4 -6 0
-5 -6 0
4 5 6 0
-7 -8 0
-7 -9 0
-8 -9 0
7 8 9 0
-10 -11 0
-10 -12 0
-11 -12 0
10 11 12 0
-13 -14 0
-13 -15 0
-14 -15 0
13 14 15 0
-16 -17 0
-16 -18 0
-17 -18 0
16 17 18 0
-19 -20 0
-19 -21 0
-20 -21 0
19 20 21 0
-22 -23 0
-22 -24 0
-23 -24 0
22 23 24 0
-25 -26 0
-25 -27 0
-26 -27 0
25 26 27 0
-28 -29 0
-28 -30 0
-29 -30 0
28 29 30 0
-31 -32 0
-31 -33 0
-32 -33 0
31 32 33 0
-34 -35 0
-34 -36 0
-35 -36 0
34 35 36 0
-37 -38 0
-37 -39 0
-38 -39 0
37 38 39 0
-40 -41 0
-40 -42 0
-41 -42 0
40 41 42 0
-43 -44 0
-43 -45 0
-44 -45 0
43 44 45 0
-46 -47 0
-46 -48 0
-47 -48 0
46 47 48 0
-49 -50 0
-49 -51 0
-50 -51 0
49 50 51 0
-52 -53 0
-52 -54 0
-53 -54 0
52 53 54 0
-55 -56 0
-55 -57 0
-56 -57 0
55 56 57 0
-58 -59 0
-58 -60 0
-59 -60 0
58 59 60 0
-61 -62 0
-61 -63 0
-62 -63 0
61 62 63 0
-64 -65 0
-64 -66 0
-65 -66 0
64 65 66 0
-67 -68 0
-67 -69 0
-68 -69 0
67 68 69 0
-70 -71 0
-70 -72 0
-71 -72 0
70 71 72 0
-73 -74 0
-73 -75 0
-74 -75 0
73 74 75 0
-76 -77 0
-76 -78 0
-77 -78 0
76 77 78 0
-79 -80 0
-79 -81 0
-80 -81 0
79 80 81 0
-82 -83 0
-82 -84 0
-83 -84 0
82 83 84 0
-85 -86 0
-85 -87 0
-86 -87 0
85 86 87 0
-88 -89 0
-88 -90 0
-89 -90 0
88 89 90 0
-91 -92 0
-91 -93 0
-92 -93 0
91 92 93 0
-94 -95 0
-94 -96 0
-95 -96 0
94 95 96 0
-97 -98 0
-97 -99 0
-98 -99 0
97 98 99 0
-100 -101 0
-100 -102 0
-101 -102 0
100 101 102 0
-103 -104 0
-103 -105 0
-104 -105 0
103 104 105 0
-106 -107 0
-106 -108 0
-107 -108 0
106 107 108 0
-109 -110 0
-109 -111 0
-110 -111 0
109 110 111 0
-112 -113 0
-112 -114 0
-113 -114 0
112 113 114 0
-115 -116 0
-115 -117 0
-116 -117 0
115 116 117 0
-118 -119 0
-118 -120 0
-119 -120 0
118 119 120 0
-121 -122 0
-121 -123 0
-122 -123 0
121 122 123 0
-124 -125 0
-124 -126 0
-125 -126 0
124 125 126 0
-127 -128 0
-127 -129 0
-128 -129 0
127 128 129 0
-130 -131 0
-130 -132 0
-131 -132 0
130 131 132 0
-133 -134 0
-133 -135 0
-134 -135 0
133 134 135 0
-136 -137 0
-136 -138 0
-137 -138 0
136 137 138 0
-139 -140 0
-139 -141 0
-140 -141 0
139 140 141 0
-142 -143 0
-142 -144 0
-143 -144 0
142 143 144 0
-145 -146 0
-145 -147 0
-146 -147 0
145 146 147 0
-148 -149 0
-148 -150 0
-149 -150 0
148 149 150 0
-67 -1 0
-68 -2 0
-69 -3 0
-82 -1 0
-83 -2 0
-84 -3 0
-88 -1 0
-89 -2 0
-90 -3 0
-100 -1 0
-101 -2 0
-102 -3 0
-136 -1 0
-137 -2 0
-138 -3 0
-64 -4 0
-65 -5 0
-66 -6 0
-73 -4 0
-74 -5 0
-75 -6 0
-94 -4 0
-95 -5 0
-96 -6 0
-112 -4 0
-113 -5 0
-114 -6 0
-121 -4 0
-122 -5 0
-123 -6 0
-124 -4 0
-125 -5 0
-126 -6 0
-142 -4 0
-143 -5 0
-144 -6 0
-142 -7 0
-143 -8 0
-144 -9 0
-91 -10 0
-92 -11 0
-93 -12 0
-94 -10 0
-95 -11 0
-96 -12 0
-106 -10 0
-107 -11 0
-108 -12 0
-112 -10 0
-113 -11 0
-114 -12 0
-118 -10 0
-119 -11 0
-120 -12 0
-121 -10 0
-122 -11 0
-123 -12 0
-55 -13 0
-56 -14 0
-57 -15 0
-67 -13 0
-68 -14 0
-69 -15 0
-76 -13 0
-77 -14 0
-78 -15 0
-91 -13 0
-92 -14 0
-93 -15 0
-121 -13 0
-122 -14 0
-123 -15 0
-124 -13 0
-125 -14 0
-126 -15 0
-133 -13 0
-134 -14 0
-135 -15 0
-145 -13 0
-146 -14 0
-147 -15 0
-58 -16 0
-59 -17 0
-60 -18 0
-100 -16 0
-101 -17 0
-102 -18 0
-73 -19 0
-74 -20 0
-75 -21 0
-88 -19 0
-89 -20 0
-90 -21 0
-94 -19 0
-95 -20 0
-96 -21 0
-58 -22 0
-59 -23 0
-60 -24 0
-124 -22 0
-125 -23 0
-126 -24 0
-133 -22 0
-134 -23 0
-135 -24 0
-148 -22 0
-149 -23 0
-150 -24 0
-73 -25 0
-74 -26 0
-75 -27 0
-82 -25 0
-83 -26 0
-84 -27 0
-109 -25 0
-110 -26 0
-111 -27 0
-136 -25 0
-137 -26 0
-138 -27 0
-142 -25 0
-143 -26 0
-144 -27 0
-52 -28 0
-53 -29 0
-54 -30 0
-112 -28 0
-113 -29 0
-114 -30 0
-115 -28 0
-116 -29 0
-117 -30 0
-61 -31 0
-62 -32 0
-63 -33 0
-76 -31 0
-77 -32 0
-78 -33 0
-79 -31 0
-80 -32 0
-81 -33 0
-118 -31 0
-119 -32 0
-120 -33 0
-55 -34 0
-56 -35 0
-57 -36 0
-85 -34 0
-86 -35 0
-87 -36 0
-91 -34 0
-92 -35 0
-93 -36 0
-112 -34 0
-113 -35 0
-114 -36 0
-124 -34 0
-125 -35 0
-126 -36 0
-148 -34 0
-149 -35 0
-150 -36 0
-67 -37 0
-68 -38 0
-69 -39 0
-94 -37 0
-95 -38 0
-96 -39 0
-115 -37 0
-116 -38 0
-117 -39 0
-130 -37 0
-131 -38 0
-132 -39 0
-55 -40 0
-56 -41 0
-57 -42 0
-64 -40 0
-65 -41 0
-66 -42 0
-70 -40 0
-71 -41 0
-72 -42 0
-76 -40 0
-77 -41 0
-78 -42 0
-106 -40 0
-107 -41 0
-108 -42 0
-118 -40 0
-119 -41 0
-120 -42 0
-73 -43 0
-74 -44 0
-75 -45 0
-79 -43 0
-80 -44 0
-81 -45 0
-106 -43 0
-107 -44 0
-108 -45 0
-139 -43 0
-140 -44 0
-141 -45 0
-79 -46 0
-80 -47 0
-81 -48 0
-100 -46 0
-101 -47 0
-102 -48 0
-130 -46 0
-131 -47 0
-132 -48 0
-136 -46 0
-137 -47 0
-138 -48 0
-67 -49 0
-68 -50 0
-69 -51 0
-79 -49 0
-80 -50 0
-81 -51 0
-115 -49 0
-116 -50 0
-117 -51 0
-136 -49 0
-137 -50 0
-138 -51 0
-148 -49 0
-149 -50 0
-150 -51 0
-115 -52 0
-116 -53 0
-117 -54 0
-136 -52 0
-137 -53 0
-138 -54 0
-127 -55 0
-128 -56 0
-129 -57 0
-142 -55 0
-143 -56 0
-144 -57 0
-115 -58 0
-116 -59 0
-117 -60 0
-139 -58 0
-140 -59 0
-141 -60 0
-142 -58 0
-143 -59 0
-144 -60 0
-124 -61 0
-125 -62 0
-126 -63 0
-127 -61 0
-128 -62 0
-129 -63 0
-142 -61 0
-143 -62 0
-144 -63 0
-145 -61 0
-146 -62 0
-147 -63 0
-106 -64 0
-107 -65 0
-108 -66 0
-115 -64 0
-116 -65 0
-117 -66 0
-139 -64 0
-140 -65 0
-141 -66 0
-115 -67 0
-116 -68 0
-117 -69 0
-136 -67 0
-137 -68 0
-138 -69 0
-118 -73 0
-119 -74 0
-120 -75 0
-127 -73 0
-128 -74 0
-129 -75 0
-130 -73 0
-131 -74 0
-132 -75 0
-124 -76 0
-125 -77 0
-126 -78 0
-136 -76 0
-137 -77 0
-138 -78 0
-133 -79 0
-134 -80 0
-135 -81 0
-103 -85 0
-104 -86 0
-105 -87 0
-145 -85 0
-146 -86 0
-147 -87 0
-103 -88 0
-104 -89 0
-105 -90 0
-118 -88 0
-119 -89 0
-120 -90 0
-133 -88 0
-134 -89 0
-135 -90 0
-145 -88 0
-146 -89 0
-147 -90 0
-124 -91 0
-125 -92 0
-126 -93 0
-121 -94 0
-122 -95 0
-123 -96 0
-142 -94 0
-143 -95 0
-144 -96 0
-145 -94 0
-146 -95 0
-147 -96 0
-103 -97 0
-104 -98 0
-105 -99 0
-109 -97 0
-110 -98 0
-111 -99 0
-127 -97 0
-128 -98 0
-129 -99 0
-139 -97 0
-140 -98 0
-141 -99 0
-118 -100 0
-119 -101 0
-120 -102 0
-139 -100 0
-140 -101 0
-141 -102 0
